row=8;
column=8;
Board=[|-1,2,-1,-1,-1,-1,-1,-1|3,-1,-1,2,-1,2,-1,-1|-1,3,-1,2,-1,-1,-1,2|2,0,2,-1,2,-1,-1,-1|-1,1,-1,-1,-1,3,-1,3|1,0,-1,-1,3,-1,3,-1|-1,-1,-1,-1,-1,-1,-1,-1|-1,2,-1,1,-1,-1,-1,-1|];
